[VALIDATOR STDOUT]
Checking plan: /home/jfan5/Safety-gen/runs/benchmark/optic/delivery_20260129_163024/delivery/optic_results/delivery_size12_packages1_seed12001.plan
Plan executed successfully - checking goal
Plan valid
Final value: 113 

Successful plans:
Value: 113
 /home/jfan5/Safety-gen/runs/benchmark/optic/delivery_20260129_163024/delivery/optic_results/delivery_size12_packages1_seed12001.plan 113
